p cnf 7230 16
608 1159 -1292 0
598 1101 -1290 0
592 1068 -1288 0
586 1065 -1286 0
-608 -1293 0
-598 -1291 0
-592 -1289 0
-586 -1287 0
1292 1293 0
1290 1291 0
1288 1289 0
1286 1287 0
-1159 -1293 0
-1101 -1291 0
-1068 -1289 0
-1065 -1287 0
